(set-logic ALL)
(set-option :produce-models true)
(declare-sort BoundSet 0)
(declare-sort UnboundSet 0)
(set-option :finite-model-find true)
(declare-fun IsSittingBy (BoundSet BoundSet) Bool)
(declare-fun IsNearby (BoundSet BoundSet) Bool)
(declare-fun IsNear (BoundSet BoundSet) Bool)
(assert (not (=> (and (exists ((a BoundSet)) (exists ((b BoundSet)) (exists ((c BoundSet)) (and (IsSittingBy b c) (IsNearby a c))))) (forall ((g BoundSet)) (forall ((h BoundSet)) (forall ((f BoundSet)) (=> (IsNear f g) (IsNearby f h)))))) (exists ((a BoundSet)) (exists ((d BoundSet)) (IsNear a d))))))
(check-sat)
(get-model)